
%    +---------------+
% 10 | | | | | | | | |
% 9  | | | | | | | | |
% 8  | | | | | | | | |
% 7  | | | | | | | | |
% 6  | | | | | |3| | |
% 5  |1|1| | | | | | |
% 4  |1|1| | | | | | |
% 3  | | | | | | |4| |
% 2  | | |2| | | | | |
% 1  | | | | | | | | |
%    +---------------+
n=8;
m=10;
h=2;
%maxT=45;
boxNumber=4;
boxSideLen = [2, 1, 1, 1];
boxStartX  = [1, 3, 6, 7];
boxStartY  = [4, 2, 6, 3];
